(declare-const main____CPAchecker_TMP_3 Int)
(declare-const |__VERIFIER_assert__cond___15':154:169:174:273:491| Int)
(declare-const |main____CPAchecker_TMP_3':226:255:269:287:505| Int)
(declare-const havoc Int)
(declare-const |K:245:246:260:278:496| Int)
(declare-const __VERIFIER_assert__cond___11 Int)
(declare-const |havoc:9:61:176:487| Int)
(declare-const |__VERIFIER_assert__cond___14':230:251:265:283:501| Int)
(declare-const |main____CPAchecker_TMP_1':153:167:172:271:489| Int)
(declare-const |main__cp':152:248:262:280:498| Int)
(declare-const |__VERIFIER_assert__cond___10':225:249:263:281:499| Int)
(declare-const |K:165:166:171:270:488| Int)
(declare-const |__VERIFIER_assert__cond___16':155:168:173:272:490| Int)
(declare-const |main__cp':152:170:175:274:492| Int)
(declare-const |main__c':223:250:264:282:500| Int)
(declare-const __VERIFIER_assert__cond___15 Int)
(declare-const __VERIFIER_assert__cond___16 Int)
(declare-const __VERIFIER_assert__cond___12 Int)
(declare-const |__VERIFIER_assert__cond___9':224:247:261:279:497| Int)
(declare-const main____CPAchecker_TMP_1 Int)
(declare-const |havoc:1| Int)
(declare-const __VERIFIER_assert__cond___13 Int)
(declare-const |havoc:2| Int)
(declare-const |havoc:21:63:259:277:495| Int)
(declare-const |havoc:12:62:258:276:494| Int)
(declare-const |__VERIFIER_assert__cond___11':227:254:268:286:504| Int)
(declare-const |phi_main____CPAchecker_TMP_1:256:257:275:493| Int)
(declare-const |__VERIFIER_assert__cond___12':228:253:267:285:503| Int)
(declare-const __VERIFIER_assert__cond___10 Int)
(declare-const __VERIFIER_assert__cond___9 Int)
(declare-const __VERIFIER_assert__cond___14 Int)
(declare-const |__VERIFIER_assert__cond___13':229:252:266:284:502| Int)
(assert (and (<= (+ havoc -1000000) 0) (<= (+ (- havoc) -1000000) 0)
               (<= (+ |havoc:1| -1000000) 0)
               (<= (+ (- |havoc:1|) -1000000) 0)
               (<= (+ |havoc:2| -1000000) 0)
               (<= (+ (- |havoc:2|) -1000000) 0) (< (- havoc) 0)
               (< (- |havoc:1|) 0) (<= (- |havoc:2|) 0) (not (= |havoc:2| 0))
               (<= (+ |havoc:2| (- havoc) 1) 0)
               (not (= (ite (< (+ |havoc:2| (- havoc) -1) 0) 1 0) 0))
               (not (= (ite (<= (+ (- |havoc:2|) 1) 0) 1 0) 0))
               (not (= |havoc:9:61:176:487| 0))
               (not (= (ite (< (+ |havoc:2| (- havoc)) 0) 1 0) 0))
               (not (= (ite (<= (- |havoc:2|) 0) 1 0) 0))
               (or (not (and (<= (- |K:165:166:171:270:488|) 0)
                               (<= |K:165:166:171:270:488| 0)))
                     (= (+ (- main____CPAchecker_TMP_1)
                             |main____CPAchecker_TMP_1':153:167:172:271:489|) 0))
               (or (not (<= (+ (- |K:165:166:171:270:488|) 1) 0))
                     (= |main____CPAchecker_TMP_1':153:167:172:271:489| 0))
               (or (not (and (<= (- |K:165:166:171:270:488|) 0)
                               (<= |K:165:166:171:270:488| 0)))
                     (= (+ (- __VERIFIER_assert__cond___16)
                             |__VERIFIER_assert__cond___16':155:168:173:272:490|) 0))
               (or (not (<= (+ (- |K:165:166:171:270:488|) 1) 0))
                     (= (+ |__VERIFIER_assert__cond___16':155:168:173:272:490|
                             -1) 0))
               (or (not (and (<= (- |K:165:166:171:270:488|) 0)
                               (<= |K:165:166:171:270:488| 0)))
                     (= (+ (- __VERIFIER_assert__cond___15)
                             |__VERIFIER_assert__cond___15':154:169:174:273:491|) 0))
               (or (not (<= (+ (- |K:165:166:171:270:488|) 1) 0))
                     (= (+ |__VERIFIER_assert__cond___15':154:169:174:273:491|
                             -1) 0))
               (or (not (<= (- |K:165:166:171:270:488|) 0))
                     (= (+ |main__cp':152:170:175:274:492|
                             (- |K:165:166:171:270:488|) (- |havoc:2|)) 0))
               (or (and (= |K:165:166:171:270:488| 0)
                          (= (+ __VERIFIER_assert__cond___16
                                  (- |__VERIFIER_assert__cond___16':155:168:173:272:490|)) 0)
                          (= (+ __VERIFIER_assert__cond___15
                                  (- |__VERIFIER_assert__cond___15':154:169:174:273:491|)) 0)
                          (= (+ main____CPAchecker_TMP_1
                                  (- |main____CPAchecker_TMP_1':153:167:172:271:489|)) 0)
                          (= (+ (- |main__cp':152:170:175:274:492|) |havoc:2|) 0))
                     (and (<= (+ (- |K:165:166:171:270:488|) 1) 0)
                            (<= (+ |havoc:2| (- havoc) 2) 0)
                            (<= (+ (- |havoc:2|) 1) 0)
                            (= (+ |__VERIFIER_assert__cond___16':155:168:173:272:490|
                                    -1) 0)
                            (= (+ |__VERIFIER_assert__cond___15':154:169:174:273:491|
                                    -1) 0)
                            (= |main____CPAchecker_TMP_1':153:167:172:271:489| 0)
                            (<= (+ |main__cp':152:170:175:274:492| (- 
                                     havoc) 1) 0)
                            (<= (+ (- |main__cp':152:170:175:274:492|) 2) 0)))
               (<= (- |K:165:166:171:270:488|) 0) (< (- havoc) 0)
               (< (- |main__cp':152:170:175:274:492|) 0)
               (or (and (<= (+ (- |main__cp':152:170:175:274:492|) havoc -1) 0)
                          (<= (+ |main__cp':152:170:175:274:492| (- havoc) 1) 0)
                          (= (+ (- |phi_main____CPAchecker_TMP_1:256:257:275:493|)
                                  |main____CPAchecker_TMP_1':153:167:172:271:489|) 0))
                     (and (or (< (+ |main__cp':152:170:175:274:492| (- 
                                      havoc) 1) 0)
                                (< (+ (- |main__cp':152:170:175:274:492|)
                                        havoc -1) 0))
                            (not (= |havoc:12:62:258:276:494| 0))
                            (= (+ |havoc:12:62:258:276:494|
                                    (- |phi_main____CPAchecker_TMP_1:256:257:275:493|)) 0)))
               (not (= (ite (< (+ |main__cp':152:170:175:274:492| (- havoc)) 0)
                            1 0) 0))
               (not (= (ite (<= (- |main__cp':152:170:175:274:492|) 0) 1 0) 0))
               (not (= (+ |main__cp':152:170:175:274:492| (- havoc) 1) 0))
               (not (= (ite (< (+ |main__cp':152:170:175:274:492| (- havoc) 1) 0)
                            1 0) 0))
               (not (= (ite (<= (+ (- |main__cp':152:170:175:274:492|) -1) 0)
                            1 0) 0))
               (not (= (+ |main__cp':152:170:175:274:492| (- havoc) 2) 0))
               (not (= |havoc:21:63:259:277:495| 0))
               (not (= (ite (< (+ |main__cp':152:170:175:274:492| (- havoc) 1) 0)
                            1 0) 0))
               (not (= (ite (<= (+ (- |main__cp':152:170:175:274:492|) -1) 0)
                            1 0) 0))
               (or (not (and (<= (- |K:245:246:260:278:496|) 0)
                               (<= |K:245:246:260:278:496| 0)))
                     (= (+ (- __VERIFIER_assert__cond___9)
                             |__VERIFIER_assert__cond___9':224:247:261:279:497|) 0))
               (or (not (<= (+ (- |K:245:246:260:278:496|) 1) 0))
                     (= (+ |__VERIFIER_assert__cond___9':224:247:261:279:497|
                             -1) 0))
               (or (not (<= (- |K:245:246:260:278:496|) 0))
                     (= (+ |main__cp':152:248:262:280:498|
                             (- |K:245:246:260:278:496|)
                             (- |main__cp':152:170:175:274:492|) -1) 0))
               (or (not (and (<= (- |K:245:246:260:278:496|) 0)
                               (<= |K:245:246:260:278:496| 0)))
                     (= (+ (- __VERIFIER_assert__cond___10)
                             |__VERIFIER_assert__cond___10':225:249:263:281:499|) 0))
               (or (not (<= (+ (- |K:245:246:260:278:496|) 1) 0))
                     (= (+ |__VERIFIER_assert__cond___10':225:249:263:281:499|
                             -1) 0))
               (or (not (<= (- |K:245:246:260:278:496|) 0))
                     (<= (+ |main__c':223:250:264:282:500|
                              (- |K:245:246:260:278:496|)) 0))
               (or (not (<= (- |K:245:246:260:278:496|) 0))
                     (<= (- |main__c':223:250:264:282:500|) 0))
               (or (and (= |K:245:246:260:278:496| 0)
                          (= (+ (- |__VERIFIER_assert__cond___14':230:251:265:283:501|)
                                  __VERIFIER_assert__cond___14) 0)
                          (= (+ (- |__VERIFIER_assert__cond___13':229:252:266:284:502|)
                                  __VERIFIER_assert__cond___13) 0)
                          (= (+ (- |__VERIFIER_assert__cond___12':228:253:267:285:503|)
                                  __VERIFIER_assert__cond___12) 0)
                          (= (+ (- |__VERIFIER_assert__cond___11':227:254:268:286:504|)
                                  __VERIFIER_assert__cond___11) 0)
                          (= (+ (- |main____CPAchecker_TMP_3':226:255:269:287:505|)
                                  main____CPAchecker_TMP_3) 0)
                          (= (+ __VERIFIER_assert__cond___10
                                  (- |__VERIFIER_assert__cond___10':225:249:263:281:499|)) 0)
                          (= (+ __VERIFIER_assert__cond___9
                                  (- |__VERIFIER_assert__cond___9':224:247:261:279:497|)) 0)
                          (= (- |main__c':223:250:264:282:500|) 0)
                          (= (+ (- |main__cp':152:248:262:280:498|)
                                  |main__cp':152:170:175:274:492| 1) 0))
                     (and (<= (+ (- |K:245:246:260:278:496|) 1) 0)
                            (<= (+ |main__cp':152:170:175:274:492| (- 
                                     havoc) 3) 0) (<= (+ (- |havoc:1|) 2) 0)
                            (<= (- |main__cp':152:170:175:274:492|) 0)
                            (= (+ |__VERIFIER_assert__cond___10':225:249:263:281:499|
                                    -1) 0)
                            (= (+ |__VERIFIER_assert__cond___9':224:247:261:279:497|
                                    -1) 0)
                            (<= (+ |main__cp':152:248:262:280:498| (- 
                                     havoc) 1) 0)
                            (<= (+ |main__c':223:250:264:282:500|
                                     (- |havoc:1|) 1) 0)
                            (<= (+ (- |havoc:1|) 2) 0)
                            (<= (- |main__c':223:250:264:282:500|) 0)
                            (<= (+ (- |main__cp':152:248:262:280:498|) 2) 0)))
               (<= (- |K:245:246:260:278:496|) 0) (< (- |havoc:1|) 0)
               (<= (- |main__c':223:250:264:282:500|) 0) (< (- havoc) 0)
               (< (- |main__cp':152:248:262:280:498|) 0)
               (or (< (+ |main__cp':152:248:262:280:498| (- havoc) 1) 0)
                     (< (+ (- |main__cp':152:248:262:280:498|) havoc -1) 0))
               (< (+ |main__c':223:250:264:282:500| (- |havoc:1|) 1) 0)
               (= (ite (< (+ |main__cp':152:248:262:280:498| (- havoc)) 0) 1
                       0) 0)))
(check-sat)
